54 19 52 11 42 33 12 73 
31 64 
3 4 2 43 47 
30 45 24 71 41 
34 8 15 18 37 65 
22 61 38 
13 25 36 44 48 49 56 1 16 5 
32 75 10 59 58 60 35 29 28 7 
17 46 62 74 50 26 21 69 66 68 
40 55 53 72 63 6 23 
67 39 20 51 9 70 57 14 27 

